RAW/XT/fspd/X-n101-k25.vrp_seed-4.out
25090	28.203	31.246
