RAW/XT/fspd/X-n101-k25.vrp_seed-4.sol
Route #1: 92 54 68
Route #2: 66 84 86 70 1
Route #3: 69 16 9
Route #4: 59 82 63
Route #5: 25 4 18
Route #6: 35 20 41 22 15
Route #7: 32 31 46 24
Route #8: 5 12 58
Route #9: 56 94 3
Route #10: 97 51 91
Route #11: 23 19 11 85 30
Route #12: 34 64 96 48 26 47 38
Route #13: 67 77 44
Route #14: 75 53 73 95
Route #15: 49 6 37 72 57
Route #16: 71 62 99 98 89
Route #17: 61 27 100 21
Route #18: 8 17 80
Route #19: 13 74 55 76 90
Route #20: 52 83 81 50
Route #21: 33 93 79
Route #22: 7 2 45 43 29 36 87 60 88 40
Route #23: 14 28 42 78 65 10 39
Cost 25090.000000